s td 169 7 188
b 1 12 22 52 120 124
b 2 30 41 58 120 166
b 3 32 49 78 120 145
b 4 33 43 59 120 148
b 5 35 67 150 179
b 6 31 38 116 120 175
b 7 20 47 113 120 132
b 8 23 45 48 114 120
b 9 2 40 55 120 138
b 10 46 54 63 68 120
b 11 27 57 94 120 144
b 12 51 96 120 129 176
b 13 4 99 117 152
b 14 105 119 120 155 181
b 15 1 7 106 120 185
b 16 61 109 120 133
b 17 65 90 103 120 128
b 18 71 118 120 131 139
b 19 11 21 66 120 134
b 20 3 98 120 141 157
b 21 42 84 120 146 173
b 22 79 112 120 162 180
b 23 56 110 120 163 182
b 24 88 97 120 142 167
b 25 64 81 120 159 187
b 26 13 19 85 120 149 179
b 27 13 34 85 120 179
b 28 4 53 82 117 168
b 29 4 117 152 168
b 30 44 70 86 120 164 179
b 31 10 83 89 91 120
b 32 13 85 93 120 149 179
b 33 5 9 120 156 179
b 34 1 7 120 179 185
b 35 10 83 89 120 179
b 36 12 52 120 124 179
b 37 14 74 100 120 179
b 38 11 21 66 120 179
b 39 25 120 121 170 179
b 40 8 28 120 127 179
b 41 36 69 120 158 179
b 42 2 40 120 138 179
b 43 42 84 120 173 179
b 44 43 59 120 148 179
b 45 44 70 117 120 164 179
b 46 13 85 93 117 120 179
b 47 83 107 117 120
b 48 83 89 117 120 179
b 49 61 89 117 120 179
b 50 61 89 117 120 133
b 51 13 31 85 116 117 120 179
b 52 31 116 120 175 179
b 53 31 103 116 117 120 179
b 54 65 90 103 120 179
b 55 11 90 103 117 120 179
b 56 11 103 117 120 179
b 57 11 66 117 120 179 181
b 58 119 120 155 179 181
b 59 117 120 148 155 179 181
b 60 117 120 148 179 181
b 61 23 45 114 120 179
b 62 2 23 117 120 138 179
b 63 17 50 67 150 179
b 64 51 120 129 176 179
b 65 46 54 63 120 179
b 66 41 58 120 166 179
b 67 59 110 117 120 148 179
b 68 110 117 120 148 179
b 69 56 110 120 179 182
b 70 46 56 110 117 120 179
b 71 46 110 117 120 179
b 72 46 63 117 120 173 179
b 73 84 117 120 166 173 179
b 74 117 120 166 173 179
b 75 41 81 117 120 166 179
b 76 81 117 120 166 179
b 77 64 81 120 159 179
b 78 71 118 120 139 179
b 79 26 72 115 120 179
b 80 73 120 165 172 179
b 81 75 120 135 136 179
b 82 6 62 77 120 179
b 83 49 78 120 145 179
b 84 1 49 117 120 145 179
b 85 117 118 120 139 145 179
b 86 1 117 120 139 145 179
b 87 1 52 117 120 139 179
b 88 52 117 120 122 139 179
b 89 69 117 120 122 139 179
b 90 69 117 120 139 179
b 91 1 52 117 120 179 185
b 92 16 37 80 120 179
b 93 8 37 117 120 127 179
b 94 16 24 37 117 120 179
b 95 24 37 117 120 127 179
b 96 24 117 120 125 127 179
b 97 18 117 120 125 127 179
b 98 18 95 117 120 127 179
b 99 95 117 120 121 127 179
b 100 74 117 120 121 127 179
b 101 74 117 120 121 179
b 102 74 117 120 123 127 179
b 103 9 74 117 120 123 179
b 104 9 74 117 120 147 179
b 105 74 117 120 136 147 179
b 106 74 117 120 136 140 179
b 107 26 117 120 136 140 179
b 108 74 117 120 137 140 179
b 109 62 74 117 120 137 179
b 110 24 102 120 130 179
b 111 81 88 117 120 159 179
b 112 88 97 120 142 179
b 113 76 87 120 125 179
b 114 24 102 117 120 125 179
b 115 18 76 117 120 125 179
b 116 18 120 126 151 179
b 117 88 117 120 142 179 180
b 118 79 112 120 179 180
b 119 20 79 117 120 179 180
b 120 20 117 120 179 180
b 121 20 113 120 132 179
b 122 20 113 117 120 138 179
b 123 23 117 120 138 179
b 124 23 27 114 117 120 179
b 125 27 57 120 144 179
b 126 27 57 117 120 176 179
b 127 29 92 120 140 179
b 128 26 29 117 120 140 179
b 129 26 115 117 120 136 179
b 130 62 74 100 117 120 179
b 131 6 62 117 120 137 179
b 132 120 137 177 179 183
b 133 117 120 137 140 177 179
b 134 95 101 120 153 179
b 135 18 95 117 120 126 179
b 136 95 117 120 121 153 179
b 137 52 117 120 122 124 179
b 138 120 122 143 179 184
b 139 69 117 120 122 143 179
b 140 3 117 120 129 176 179
b 141 3 117 120 176 179
b 142 3 98 120 157 179
b 143 3 98 117 120 139 179
b 144 60 69 117 120 158 179
b 145 117 120 135 136 147 179
b 146 104 120 147 171 179
b 147 9 104 117 120 147 179
b 148 15 17 67 150 179
b 149 15 17 67 117 120 154 179
b 150 15 60 67 117 120 154 179
b 151 15 60 67 117 120 154 168
b 152 60 67 117 120 154 168 174
b 153 67 117 120 152 154 168 174
b 154 117 120 152 154 168 174
b 155 17 117 120 154 179 188
b 156 74 117 120 154 179 188
b 157 9 117 120 123 156 179
b 158 108 120 123 178 179
b 159 108 117 120 123 127 179
b 160 111 120 161 179 186
b 161 61 111 117 120 179 186
b 162 111 117 120 179 186
b 163 117 120 165 172 179 186
b 164 117 120 165 179 186
b 165 39 120 160 169 179
b 166 39 117 120 160 165 179
b 167 117 120 160 165 179
b 168 117 120 121 160 170 179
b 169 117 120 121 170 179
1 36
2 66
3 83
4 44
5 148
6 52
7 121
8 61
9 42
10 65
11 125
12 64
13 29
14 58
15 34
16 50
17 54
18 78
19 38
20 142
21 43
22 118
23 69
24 112
25 77
26 32
27 51
28 29
29 153
30 45
31 35
32 46
33 157
34 91
35 48
36 137
37 130
38 57
39 169
40 93
41 144
42 62
43 73
44 67
45 149
46 51
47 48
48 49
49 50
49 161
51 53
52 53
53 56
54 55
55 56
56 57
57 60
58 59
59 60
60 68
61 124
62 123
63 148
64 140
65 72
66 75
67 68
68 71
69 70
70 71
71 72
72 74
73 74
74 76
75 76
76 111
77 111
78 85
79 129
80 163
81 145
82 131
83 84
84 86
85 86
86 143
86 87
87 91
87 88
88 137
88 89
89 139
89 144
89 90
92 94
93 95
94 95
95 96
96 114
96 97
97 115
97 98
98 135
98 99
99 136
99 169
99 100
100 156
100 102
100 101
102 159
102 103
103 157
103 104
104 147
104 105
105 145
105 106
106 107
106 108
107 128
107 129
108 133
108 109
109 130
109 131
110 114
111 117
112 117
113 115
116 135
117 120
118 119
119 120
120 122
121 122
122 123
123 124
124 126
125 126
126 141
127 128
132 133
134 136
138 139
140 141
141 143
142 143
144 150
146 147
148 149
149 155
149 150
150 151
151 152
152 153
153 154
155 156
158 159
160 162
161 162
162 164
163 164
164 167
165 166
166 167
167 168
168 169
